(set-info :smt-lib-version 2.6)
(set-logic QF_SLIA)
(set-info :source |
Generated by: Denghang Hu
Generated on: 2023-03-29
Application: Evaluate string solvers
Description: The instance consists of:
(1) a regular membership predicate from the real world
(2) a regular membership predicate to sanitize danger letters in javascript such as <,>,&,",'
(3) a lower bound for string length
Target solver: Ostrich, Z3str3, CVC5
|)
(set-info :license "https://creativecommons.org/licenses/by/4.0/")
(set-info :category "industrial")
(set-info :status unknown)
        ;test regex ^([abcdef0123456789]{8}-[abcdef0123456789]{4}-[abcdef0123456789]{4}-[abcdef0123456789]{4}-[abcdef0123456789]{12})\t(.+?)\x0B
(declare-const X String)
(assert (str.in_re X (re.++ (str.to_re "") (re.++ (re.++ ((_ re.loop 8 8) (re.union (str.to_re "a") (re.union (str.to_re "b") (re.union (str.to_re "c") (re.union (str.to_re "d") (re.union (str.to_re "e") (re.union (str.to_re "f") (str.to_re "0123456789")))))))) (re.++ (str.to_re "-") (re.++ ((_ re.loop 4 4) (re.union (str.to_re "a") (re.union (str.to_re "b") (re.union (str.to_re "c") (re.union (str.to_re "d") (re.union (str.to_re "e") (re.union (str.to_re "f") (str.to_re "0123456789")))))))) (re.++ (str.to_re "-") (re.++ ((_ re.loop 4 4) (re.union (str.to_re "a") (re.union (str.to_re "b") (re.union (str.to_re "c") (re.union (str.to_re "d") (re.union (str.to_re "e") (re.union (str.to_re "f") (str.to_re "0123456789")))))))) (re.++ (str.to_re "-") (re.++ ((_ re.loop 4 4) (re.union (str.to_re "a") (re.union (str.to_re "b") (re.union (str.to_re "c") (re.union (str.to_re "d") (re.union (str.to_re "e") (re.union (str.to_re "f") (str.to_re "0123456789")))))))) (re.++ (str.to_re "-") ((_ re.loop 12 12) (re.union (str.to_re "a") (re.union (str.to_re "b") (re.union (str.to_re "c") (re.union (str.to_re "d") (re.union (str.to_re "e") (re.union (str.to_re "f") (str.to_re "0123456789")))))))))))))))) (re.++ (str.to_re "\u{09}") (re.++ (re.+ (re.diff re.allchar (str.to_re "\n"))) (str.to_re "\u{0b}")))))))
; sanitize danger characters:  < > ' " &
(assert (not (str.in_re X (re.++ re.all (re.union (str.to_re "\u{3c}") (str.to_re "\u{3e}") (str.to_re "\u{27}") (str.to_re "\u{22}") (str.to_re "\u{26}")) re.all))))
(assert (< 20 (str.len X)))
(check-sat)
(exit)
